!------------------------------------------------------------------------------!
!--------------------------------- INPUT FILE ---------------------------------!
!------------------------------------------------------------------------------!

cutoff_energy : 1280 eV
do_properties : F
edft : F
extend_ngwf : T T T
forces_output_detail : verbose
full_rand_ngwf : T
kpoint_grid_shift : 0 0 1
kpoint_grid_size : 33 33 18
kpoint_method : KP
maxit_lnv : -1
maxit_ngwf_cg : 1000
minit_lnv : -1
output_detail : Normal
paw : F
permit_unusual_ngwf_count : T
pseudo_path : .
rand_seed_ngwf_dynamic : F
read_denskern : T
read_tightbox_ngwfs : T
spin : 0
spin_polarized : F
task : SinglePoint
use_cmplx_ngwfs : T
write_forces : F
xc_functional : PBE

%BLOCK LATTICE_CART
ang
      2.88705637       0.00000000       0.00000000
      1.44352818       2.50026416       0.00000000
      0.00000000       0.00000000       4.71453924
%ENDBLOCK LATTICE_CART

%BLOCK POSITIONS_ABS
ang
   He     0.000000     0.000000     0.000000
   He     1.443514     0.833413     2.357270
%ENDBLOCK POSITIONS_ABS

%BLOCK SPECIES
He He 2 -1 9.0
%ENDBLOCK SPECIES

%BLOCK SPECIES_POT
He He_NCP19_PBE_OTF.usp
%ENDBLOCK SPECIES_POT

!------------------------------------------------------------------------------!
!-------------------------------- END OF INPUT --------------------------------!
!------------------------------------------------------------------------------!