!------------------------------------------------------------------------------!
!--------------------------------- INPUT FILE ---------------------------------!
!------------------------------------------------------------------------------!

cutoff_energy : 1280 eV
do_properties : F
edft : T
edft_maxit : 4
edft_smearing_width : 0.2 eV
eigensolver_abstol : -1
eigensolver_orfac : -1
extend_ngwf : T T T
forces_output_detail : verbose
full_rand_ngwf : T
kpoint_grid_shift : 0 0 0
kpoint_grid_size : 21 21 20
kpoint_method : KP
maxit_ngwf_cg : 1000
occ_mix : 1.0
output_detail : Normal
paw : F
permit_unusual_ngwf_count : T
pseudo_path : .
rand_seed_ngwf_dynamic : F
read_denskern : T
read_tightbox_ngwfs : T
spin : 0
spin_polarized : F
task : SinglePoint
use_cmplx_ngwfs : T
write_forces : F
xc_functional : PBE

%BLOCK LATTICE_CART
ang
      4.83443661       0.00000000       0.00000000
     -2.41721831       4.18674492       0.00000000
      2.41721593      -1.39558027       4.12757472
%ENDBLOCK LATTICE_CART

%BLOCK POSITIONS_ABS
ang
    B     6.390447    -0.898363     2.784668
    B    -1.556013     3.689528     1.342906
    B     4.834411     1.796770     2.784668
    B     0.000023     0.994394     1.342906
    B     3.278375    -0.898363     2.784668
    B     1.556059     3.689528     1.342906
    B     3.406561     0.824384     0.300240
    B     1.427873     1.966781     3.827335
    B     2.417242     2.537935     0.300240
    B     2.417192     0.253230     3.827335
    B     1.427923     0.824384     0.300240
    B     3.406511     1.966781     3.827335
%ENDBLOCK POSITIONS_ABS

%BLOCK SPECIES
B B 5 -1 9.0
%ENDBLOCK SPECIES

%BLOCK SPECIES_POT
B B_NCP19_PBE_OTF.usp
%ENDBLOCK SPECIES_POT

!------------------------------------------------------------------------------!
!-------------------------------- END OF INPUT --------------------------------!
!------------------------------------------------------------------------------!