!------------------------------------------------------------------------------!
!--------------------------------- INPUT FILE ---------------------------------!
!------------------------------------------------------------------------------!

cutoff_energy : 1280 eV
do_properties : F
edft : F
extend_ngwf : T T T
forces_output_detail : verbose
full_rand_ngwf : T
kpoint_grid_shift : 0 1 1
kpoint_grid_size : 11 20 10
kpoint_method : KP
maxit_ngwf_cg : 1000
output_detail : Normal
paw : F
permit_unusual_ngwf_count : T
pseudo_path : .
rand_seed_ngwf_dynamic : F
read_denskern : T
read_tightbox_ngwfs : T
spin : 0
spin_polarized : F
task : SinglePoint
use_cmplx_ngwfs : T
write_forces : F
xc_functional : PBE

%BLOCK LATTICE_CART
ang
      7.61995544       0.00000000       0.00000000
      0.00000000       4.26062162       0.00000000
      0.00000000       0.00000000       8.84325278
%ENDBLOCK LATTICE_CART

%BLOCK POSITIONS_ABS
ang
   Cl     0.000000     1.741827     7.945486
   Cl     0.000000     0.388483     3.523859
   Cl     0.000000     3.872138     5.319393
   Cl     0.000000     2.518794     0.897767
   Cl     3.809978     3.872138     7.945486
   Cl     3.809978     2.518794     3.523859
   Cl     3.809978     1.741827     5.319393
   Cl     3.809978     0.388483     0.897767
%ENDBLOCK POSITIONS_ABS

%BLOCK SPECIES
Cl Cl 17 -1 9.0
%ENDBLOCK SPECIES

%BLOCK SPECIES_POT
Cl Cl_NCP19_PBE_OTF.usp
%ENDBLOCK SPECIES_POT

!------------------------------------------------------------------------------!
!-------------------------------- END OF INPUT --------------------------------!
!------------------------------------------------------------------------------!