!------------------------------------------------------------------------------!
!--------------------------------- INPUT FILE ---------------------------------!
!------------------------------------------------------------------------------!

cutoff_energy : 1280 eV
do_properties : F
edft : T
edft_maxit : 4
edft_smearing_width : 0.2 eV
eigensolver_abstol : -1
eigensolver_orfac : -1
extend_ngwf : T T T
forces_output_detail : verbose
full_rand_ngwf : T
kpoint_grid_shift : 0 0 0
kpoint_grid_size : 37 37 17
kpoint_method : KP
maxit_ngwf_cg : 1000
occ_mix : 1.0
output_detail : Normal
paw : F
permit_unusual_ngwf_count : T
pseudo_path : .
rand_seed_ngwf_dynamic : F
read_denskern : T
read_tightbox_ngwfs : T
spin : 0
spin_polarized : F
task : SinglePoint
use_cmplx_ngwfs : T
write_forces : F
xc_functional : PBE

%BLOCK LATTICE_CART
ang
      2.62571681       0.00000000       0.00000000
      1.31285840       2.27393746       0.00000000
      0.00000000       0.00000000       4.93634049
%ENDBLOCK LATTICE_CART

%BLOCK POSITIONS_ABS
ang
   Zn     0.000000     0.000000     0.000000
   Zn     1.312845     0.757972     2.468170
%ENDBLOCK POSITIONS_ABS

%BLOCK SPECIES
Zn Zn 30 -1 9.0
%ENDBLOCK SPECIES

%BLOCK SPECIES_POT
Zn Zn_NCP19_PBE_OTF.usp
%ENDBLOCK SPECIES_POT

!------------------------------------------------------------------------------!
!-------------------------------- END OF INPUT --------------------------------!
!------------------------------------------------------------------------------!