!------------------------------------------------------------------------------!
!--------------------------------- INPUT FILE ---------------------------------!
!------------------------------------------------------------------------------!

cutoff_energy : 1280 eV
do_properties : F
edft : F
extend_ngwf : T T T
forces_output_detail : verbose
full_rand_ngwf : T
kpoint_grid_shift : 1 0 1
kpoint_grid_size : 14 23 13
kpoint_method : KP
maxit_ngwf_cg : 1000
output_detail : Normal
paw : F
permit_unusual_ngwf_count : T
pseudo_path : .
rand_seed_ngwf_dynamic : F
read_denskern : T
read_tightbox_ngwfs : T
spin : 0
spin_polarized : F
task : SinglePoint
use_cmplx_ngwfs : T
write_forces : F
xc_functional : PBE

%BLOCK LATTICE_CART
ang
      6.24420272       0.00000000       0.00000000
      0.00000000       3.73354306       0.00000000
     -0.82779520       0.00000000       6.96756291
%ENDBLOCK LATTICE_CART

%BLOCK POSITIONS_ABS
ang
    F     1.514351     1.233189     0.655857
    F     3.902056     2.500354     6.311706
    F     4.315954     1.233189     2.827925
    F     1.100454     2.500354     4.139638
    F     4.636453     3.099961     0.655857
    F     0.779955     0.633582     6.311706
    F     1.193852     3.099961     2.827925
    F     4.222555     0.633582     4.139638
%ENDBLOCK POSITIONS_ABS

%BLOCK SPECIES
F F 9 -1 9.0
%ENDBLOCK SPECIES

%BLOCK SPECIES_POT
F F_NCP19_PBE_OTF.usp
%ENDBLOCK SPECIES_POT

!------------------------------------------------------------------------------!
!-------------------------------- END OF INPUT --------------------------------!
!------------------------------------------------------------------------------!