!------------------------------------------------------------------------------!
!--------------------------------- INPUT FILE ---------------------------------!
!------------------------------------------------------------------------------!

cutoff_energy : 1280 eV
do_properties : F
edft : T
edft_maxit : 4
edft_smearing_width : 0.2 eV
eigensolver_abstol : -1
eigensolver_orfac : -1
extend_ngwf : T T T
forces_output_detail : verbose
full_rand_ngwf : T
kpoint_grid_shift : 0 0 0
kpoint_grid_size : 29 29 17
kpoint_method : KP
maxit_ngwf_cg : 1000
occ_mix : 1.0
output_detail : Normal
paw : F
permit_unusual_ngwf_count : T
pseudo_path : .
rand_seed_ngwf_dynamic : F
spin : 0
spin_polarized : F
task : SinglePoint
use_cmplx_ngwfs : T
write_forces : F
xc_functional : PBE

%BLOCK LATTICE_CART
ang
      3.32145000       0.00000000       0.00000000
      1.66072500       2.87646008       0.00000000
      0.00000000       0.00000000       5.16192000
%ENDBLOCK LATTICE_CART

%BLOCK POSITIONS_ABS
ang
   Sc     0.000000     0.000000     0.000000
   Sc     1.660708     0.958810     2.580960
%ENDBLOCK POSITIONS_ABS

%BLOCK SPECIES
Sc Sc 21 -1 9.0
%ENDBLOCK SPECIES

%BLOCK SPECIES_POT
Sc Sc_NCP19_PBE_OTF.usp
%ENDBLOCK SPECIES_POT

!------------------------------------------------------------------------------!
!-------------------------------- END OF INPUT --------------------------------!
!------------------------------------------------------------------------------!