!------------------------------------------------------------------------------!
!--------------------------------- INPUT FILE ---------------------------------!
!------------------------------------------------------------------------------!

cutoff_energy : 1280 eV
do_properties : F
edft : T
edft_maxit : 4
edft_smearing_width : 0.2 eV
eigensolver_abstol : -1
eigensolver_orfac : -1
extend_ngwf : T T T
forces_output_detail : verbose
full_rand_ngwf : T
kpoint_grid_shift : 1 1 1
kpoint_grid_size : 26 26 4
kpoint_method : KP
maxit_ngwf_cg : 1000
occ_mix : 1.0
output_detail : Normal
paw : F
permit_unusual_ngwf_count : T
pseudo_path : .
rand_seed_ngwf_dynamic : F
spin : 0
spin_polarized : F
task : SinglePoint
use_cmplx_ngwfs : T
write_forces : F
xc_functional : PBE

%BLOCK LATTICE_CART
ang
      9.41813000       0.00000000       0.00000000
      8.67443415       3.66815551       0.00000000
      8.67443415       1.75868789       3.21906535
%ENDBLOCK LATTICE_CART

%BLOCK POSITIONS_ABS
ang
   Na     0.000000     0.000000     0.000000
   Na     5.948162     1.205953     0.715341
   Na    20.818836     4.220890     2.503725
%ENDBLOCK POSITIONS_ABS

%BLOCK SPECIES
Na Na 11 -1 9.0
%ENDBLOCK SPECIES

%BLOCK SPECIES_POT
Na Na_NCP19_PBE_OTF.usp
%ENDBLOCK SPECIES_POT

!------------------------------------------------------------------------------!
!-------------------------------- END OF INPUT --------------------------------!
!------------------------------------------------------------------------------!