!------------------------------------------------------------------------------!
!--------------------------------- INPUT FILE ---------------------------------!
!------------------------------------------------------------------------------!

cutoff_energy : 1280 eV
do_properties : F
edft : T
edft_maxit : 4
edft_smearing_width : 0.2 eV
eigensolver_abstol : -1
eigensolver_orfac : -1
extend_ngwf : T T T
forces_output_detail : verbose
full_rand_ngwf : T
kpoint_grid_shift : 0 0 0
kpoint_grid_size : 21 21 20
kpoint_method : KP
maxit_ngwf_cg : 1000
occ_mix : 1.0
output_detail : Normal
paw : F
permit_unusual_ngwf_count : T
pseudo_path : .
rand_seed_ngwf_dynamic : F
read_denskern : T
read_tightbox_ngwfs : T
spin : 0
spin_polarized : F
task : SinglePoint
use_cmplx_ngwfs : T
write_forces : F
xc_functional : PBE

%BLOCK LATTICE_CART
ang
      4.96515990       0.00000000       0.00000000
     -2.48257995       4.29995460       0.00000000
      2.48257751      -1.43331679       4.23918444
%ENDBLOCK LATTICE_CART

%BLOCK POSITIONS_ABS
ang
    B     6.563245    -0.922655     2.859966
    B    -1.598087     3.789292     1.379219
    B     4.965133     1.845355     2.859966
    B     0.000024     1.021283     1.379219
    B     3.367022    -0.922655     2.859966
    B     1.598135     3.789292     1.379219
    B     3.498675     0.846675     0.308358
    B     1.466483     2.019962     3.930826
    B     2.482605     2.606561     0.308358
    B     2.482553     0.260077     3.930826
    B     1.466534     0.846675     0.308358
    B     3.498623     2.019962     3.930826
%ENDBLOCK POSITIONS_ABS

%BLOCK SPECIES
B B 5 -1 9.0
%ENDBLOCK SPECIES

%BLOCK SPECIES_POT
B B_NCP19_PBE_OTF.usp
%ENDBLOCK SPECIES_POT

!------------------------------------------------------------------------------!
!-------------------------------- END OF INPUT --------------------------------!
!------------------------------------------------------------------------------!