!------------------------------------------------------------------------------!
!--------------------------------- INPUT FILE ---------------------------------!
!------------------------------------------------------------------------------!

cutoff_energy : 1280 eV
do_properties : F
edft : T
edft_maxit : 4
edft_smearing_width : 0.2 eV
eigensolver_abstol : -1
eigensolver_orfac : -1
extend_ngwf : T T T
forces_output_detail : verbose
full_rand_ngwf : T
kpoint_grid_shift : 0 0 1
kpoint_grid_size : 21 21 20
kpoint_method : KP
maxit_ngwf_cg : 1000
occ_mix : 1.0
output_detail : Normal
paw : F
permit_unusual_ngwf_count : T
pseudo_path : .
rand_seed_ngwf_dynamic : F
read_denskern : T
read_tightbox_ngwfs : T
spin : 0
spin_polarized : F
task : SinglePoint
use_cmplx_ngwfs : T
write_forces : F
xc_functional : PBE

%BLOCK LATTICE_CART
ang
      4.80062826       0.00000000       0.00000000
     -2.40031413       4.15746602       0.00000000
      2.40031177      -1.38582065       4.09870962
%ENDBLOCK LATTICE_CART

%BLOCK POSITIONS_ABS
ang
    B     6.345757    -0.892080     2.765194
    B    -1.545131     3.663726     1.333515
    B     4.800603     1.784205     2.765194
    B     0.000023     0.987440     1.333515
    B     3.255448    -0.892080     2.765194
    B     1.545177     3.663726     1.333515
    B     3.382739     0.818619     0.298140
    B     1.417887     1.953026     3.800569
    B     2.400338     2.520187     0.298140
    B     2.400288     0.251459     3.800569
    B     1.417937     0.818619     0.298140
    B     3.382689     1.953026     3.800569
%ENDBLOCK POSITIONS_ABS

%BLOCK SPECIES
B B 5 -1 9.0
%ENDBLOCK SPECIES

%BLOCK SPECIES_POT
B B_NCP19_PBE_OTF.usp
%ENDBLOCK SPECIES_POT

!------------------------------------------------------------------------------!
!-------------------------------- END OF INPUT --------------------------------!
!------------------------------------------------------------------------------!