!------------------------------------------------------------------------------!
!--------------------------------- INPUT FILE ---------------------------------!
!------------------------------------------------------------------------------!

cutoff_energy : 1280 eV
do_properties : F
edft : F
extend_ngwf : T T T
forces_output_detail : verbose
full_rand_ngwf : T
kpoint_grid_shift : 0 1 1
kpoint_grid_size : 11 20 10
kpoint_method : KP
maxit_ngwf_cg : 1000
output_detail : Normal
paw : F
permit_unusual_ngwf_count : T
pseudo_path : .
rand_seed_ngwf_dynamic : F
spin : 0
spin_polarized : F
task : SinglePoint
use_cmplx_ngwfs : T
write_forces : F
xc_functional : PBE

%BLOCK LATTICE_CART
ang
      8.22860000       0.00000000       0.00000000
      0.00000000       4.22731000       0.00000000
      0.00000000       0.00000000       9.03323000
%ENDBLOCK LATTICE_CART

%BLOCK POSITIONS_ABS
ang
   Br     0.000000     1.588369     7.974897
   Br     0.000000     0.525286     3.458282
   Br     0.000000     3.702024     5.574948
   Br     0.000000     2.638941     1.058333
   Br     4.114300     3.702024     7.974897
   Br     4.114300     2.638941     3.458282
   Br     4.114300     1.588369     5.574948
   Br     4.114300     0.525286     1.058333
%ENDBLOCK POSITIONS_ABS

%BLOCK SPECIES
Br Br 35 -1 9.0
%ENDBLOCK SPECIES

%BLOCK SPECIES_POT
Br Br_NCP19_PBE_OTF.usp
%ENDBLOCK SPECIES_POT

!------------------------------------------------------------------------------!
!-------------------------------- END OF INPUT --------------------------------!
!------------------------------------------------------------------------------!