!------------------------------------------------------------------------------!
!--------------------------------- INPUT FILE ---------------------------------!
!------------------------------------------------------------------------------!

cutoff_energy : 1280 eV
do_properties : F
edft : T
edft_maxit : 4
edft_smearing_width : 0.2 eV
eigensolver_abstol : -1
eigensolver_orfac : -1
extend_ngwf : T T T
forces_output_detail : verbose
full_rand_ngwf : T
kpoint_grid_shift : 0 0 1
kpoint_grid_size : 21 21 20
kpoint_method : KP
maxit_ngwf_cg : 1000
occ_mix : 1.0
output_detail : Normal
paw : F
permit_unusual_ngwf_count : T
pseudo_path : .
rand_seed_ngwf_dynamic : F
read_denskern : T
read_tightbox_ngwfs : T
spin : 0
spin_polarized : F
task : SinglePoint
use_cmplx_ngwfs : T
write_forces : F
xc_functional : PBE

%BLOCK LATTICE_CART
ang
      4.93312571       0.00000000       0.00000000
     -2.46656286       4.27221219       0.00000000
      2.46656043      -1.42406933       4.21183411
%ENDBLOCK LATTICE_CART

%BLOCK POSITIONS_ABS
ang
    B     6.520900    -0.916702     2.841514
    B    -1.587777     3.764845     1.370320
    B     4.933099     1.833449     2.841514
    B     0.000024     1.014694     1.370320
    B     3.345299    -0.916702     2.841514
    B     1.587824     3.764845     1.370320
    B     3.476102     0.841213     0.306369
    B     1.457021     2.006930     3.905465
    B     2.466587     2.589744     0.306369
    B     2.466536     0.258399     3.905465
    B     1.457073     0.841213     0.306369
    B     3.476051     2.006930     3.905465
%ENDBLOCK POSITIONS_ABS

%BLOCK SPECIES
B B 5 -1 9.0
%ENDBLOCK SPECIES

%BLOCK SPECIES_POT
B B_NCP19_PBE_OTF.usp
%ENDBLOCK SPECIES_POT

!------------------------------------------------------------------------------!
!-------------------------------- END OF INPUT --------------------------------!
!------------------------------------------------------------------------------!