!------------------------------------------------------------------------------!
!--------------------------------- INPUT FILE ---------------------------------!
!------------------------------------------------------------------------------!

cutoff_energy : 1280 eV
do_properties : F
edft : F
extend_ngwf : T T T
forces_output_detail : verbose
full_rand_ngwf : T
kpoint_grid_shift : 1 0 0
kpoint_grid_size : 10 19 9
kpoint_method : KP
maxit_ngwf_cg : 1000
output_detail : Normal
paw : F
permit_unusual_ngwf_count : T
pseudo_path : .
rand_seed_ngwf_dynamic : F
read_denskern : T
read_tightbox_ngwfs : T
spin : 0
spin_polarized : F
task : SinglePoint
use_cmplx_ngwfs : T
write_forces : F
xc_functional : PBE

%BLOCK LATTICE_CART
ang
      8.46109025       0.00000000       0.00000000
      0.00000000       4.49266894       0.00000000
      0.00000000       0.00000000      10.04617407
%ENDBLOCK LATTICE_CART

%BLOCK POSITIONS_ABS
ang
    I     0.000000     1.635781     8.826267
    I     0.000000     0.610554     3.803180
    I     0.000000     3.882115     6.242994
    I     0.000000     2.856888     1.219907
    I     4.230545     3.882115     8.826267
    I     4.230545     2.856888     3.803180
    I     4.230545     1.635781     6.242994
    I     4.230545     0.610554     1.219907
%ENDBLOCK POSITIONS_ABS

%BLOCK SPECIES
I I 53 -1 9.0
%ENDBLOCK SPECIES

%BLOCK SPECIES_POT
I I_NCP19_PBE_OTF.usp
%ENDBLOCK SPECIES_POT

!------------------------------------------------------------------------------!
!-------------------------------- END OF INPUT --------------------------------!
!------------------------------------------------------------------------------!