!------------------------------------------------------------------------------!
!--------------------------------- INPUT FILE ---------------------------------!
!------------------------------------------------------------------------------!

cutoff_energy : 1280 eV
do_properties : F
edft : F
extend_ngwf : T T T
forces_output_detail : verbose
full_rand_ngwf : T
kpoint_grid_shift : 1 0 1
kpoint_grid_size : 10 19 9
kpoint_method : KP
maxit_ngwf_cg : 1000
output_detail : Normal
paw : F
permit_unusual_ngwf_count : T
pseudo_path : .
rand_seed_ngwf_dynamic : F
read_denskern : T
read_tightbox_ngwfs : T
spin : 0
spin_polarized : F
task : SinglePoint
use_cmplx_ngwfs : T
write_forces : F
xc_functional : PBE

%BLOCK LATTICE_CART
ang
      8.51944444       0.00000000       0.00000000
      0.00000000       4.52365384       0.00000000
      0.00000000       0.00000000      10.11546022
%ENDBLOCK LATTICE_CART

%BLOCK POSITIONS_ABS
ang
    I     0.000000     1.647062     8.887140
    I     0.000000     0.614765     3.829410
    I     0.000000     3.908889     6.286050
    I     0.000000     2.876591     1.228320
    I     4.259722     3.908889     8.887140
    I     4.259722     2.876591     3.829410
    I     4.259722     1.647062     6.286050
    I     4.259722     0.614765     1.228320
%ENDBLOCK POSITIONS_ABS

%BLOCK SPECIES
I I 53 -1 9.0
%ENDBLOCK SPECIES

%BLOCK SPECIES_POT
I I_NCP19_PBE_OTF.usp
%ENDBLOCK SPECIES_POT

!------------------------------------------------------------------------------!
!-------------------------------- END OF INPUT --------------------------------!
!------------------------------------------------------------------------------!