!------------------------------------------------------------------------------!
!--------------------------------- INPUT FILE ---------------------------------!
!------------------------------------------------------------------------------!

cutoff_energy : 1280 eV
do_properties : F
edft : F
extend_ngwf : T T T
forces_output_detail : verbose
full_rand_ngwf : T
kpoint_grid_shift : 1 0 0
kpoint_grid_size : 14 23 13
kpoint_method : KP
maxit_ngwf_cg : 1000
output_detail : Normal
paw : F
permit_unusual_ngwf_count : T
pseudo_path : .
rand_seed_ngwf_dynamic : F
read_denskern : T
read_tightbox_ngwfs : T
spin : 0
spin_polarized : F
task : SinglePoint
use_cmplx_ngwfs : T
write_forces : F
xc_functional : PBE

%BLOCK LATTICE_CART
ang
      6.28397579       0.00000000       0.00000000
      0.00000000       3.75732423       0.00000000
     -0.83306792       0.00000000       7.01194349
%ENDBLOCK LATTICE_CART

%BLOCK POSITIONS_ABS
ang
    F     1.523997     1.241044     0.660034
    F     3.926911     2.516280     6.351909
    F     4.343445     1.241044     2.845938
    F     1.107463     2.516280     4.166006
    F     4.665985     3.119706     0.660034
    F     0.784923     0.637618     6.351909
    F     1.201457     3.119706     2.845938
    F     4.249451     0.637618     4.166006
%ENDBLOCK POSITIONS_ABS

%BLOCK SPECIES
F F 9 -1 9.0
%ENDBLOCK SPECIES

%BLOCK SPECIES_POT
F F_NCP19_PBE_OTF.usp
%ENDBLOCK SPECIES_POT

!------------------------------------------------------------------------------!
!-------------------------------- END OF INPUT --------------------------------!
!------------------------------------------------------------------------------!