!------------------------------------------------------------------------------!
!--------------------------------- INPUT FILE ---------------------------------!
!------------------------------------------------------------------------------!

cutoff_energy : 1280 eV
do_properties : F
edft : F
extend_ngwf : T T T
forces_output_detail : verbose
full_rand_ngwf : T
kpoint_method : KP
maxit_ngwf_cg : 1000
output_detail : Normal
paw : F
permit_unusual_ngwf_count : T
pseudo_path : .
rand_seed_ngwf_dynamic : F
read_denskern : T
read_tightbox_ngwfs : T
spin : 0
spin_polarized : F
task : SinglePoint
use_cmplx_ngwfs : T
write_forces : F
xc_functional : PBE

%BLOCK KPOINTS_LIST
39 39 10
%ENDBLOCK KPOINTS_LIST

%BLOCK LATTICE_CART
ang
      2.51698563       0.00000000       0.00000000
     -1.25849281       2.17977349       0.00000000
      0.00000000       0.00000000       9.01418284
%ENDBLOCK LATTICE_CART

%BLOCK POSITIONS_ABS
ang
    C     0.000000     0.000000     2.253546
    C     0.000000     0.000000     6.760637
    C    -0.000013     1.453190     2.253546
    C     1.258505     0.726584     6.760637
%ENDBLOCK POSITIONS_ABS

%BLOCK SPECIES
C C 6 -1 9.0
%ENDBLOCK SPECIES

%BLOCK SPECIES_POT
C C_NCP19_PBE_OTF.usp
%ENDBLOCK SPECIES_POT

!------------------------------------------------------------------------------!
!-------------------------------- END OF INPUT --------------------------------!
!------------------------------------------------------------------------------!