!------------------------------------------------------------------------------!
!--------------------------------- INPUT FILE ---------------------------------!
!------------------------------------------------------------------------------!

cutoff_energy : 1280 eV
do_properties : F
edft : F
extend_ngwf : T T T
forces_output_detail : verbose
full_rand_ngwf : T
kpoint_grid_shift : 1 0 0
kpoint_grid_size : 14 23 13
kpoint_method : KP
maxit_ngwf_cg : 1000
output_detail : Normal
paw : F
permit_unusual_ngwf_count : T
pseudo_path : .
rand_seed_ngwf_dynamic : F
spin : 0
spin_polarized : F
task : SinglePoint
use_cmplx_ngwfs : T
write_forces : F
xc_functional : PBE

%BLOCK LATTICE_CART
ang
      6.16310000       0.00000000       0.00000000
      0.00000000       3.68505000       0.00000000
     -0.81704339       0.00000000       6.87706484
%ENDBLOCK LATTICE_CART

%BLOCK POSITIONS_ABS
ang
    F     1.494682     1.217172     0.647338
    F     3.851374     2.467878     6.229727
    F     4.259896     1.217172     2.791194
    F     1.086161     2.467878     4.085871
    F     4.576232     3.059697     0.647338
    F     0.769824     0.625353     6.229727
    F     1.178346     3.059697     2.791194
    F     4.167711     0.625353     4.085871
%ENDBLOCK POSITIONS_ABS

%BLOCK SPECIES
F F 9 -1 9.0
%ENDBLOCK SPECIES

%BLOCK SPECIES_POT
F F_NCP19_PBE_OTF.usp
%ENDBLOCK SPECIES_POT

!------------------------------------------------------------------------------!
!-------------------------------- END OF INPUT --------------------------------!
!------------------------------------------------------------------------------!