!------------------------------------------------------------------------------!
!--------------------------------- INPUT FILE ---------------------------------!
!------------------------------------------------------------------------------!

cutoff_energy : 1280 eV
do_properties : F
edft : T
edft_maxit : 4
edft_smearing_width : 0.2 eV
eigensolver_abstol : -1
eigensolver_orfac : -1
extend_ngwf : T T T
forces_output_detail : verbose
full_rand_ngwf : T
kpoint_grid_shift : 1 1 1
kpoint_grid_size : 26 26 8
kpoint_method : KP
maxit_ngwf_cg : 1000
occ_mix : 1.0
output_detail : Normal
paw : F
permit_unusual_ngwf_count : T
pseudo_path : .
rand_seed_ngwf_dynamic : F
read_denskern : T
read_tightbox_ngwfs : T
spin : 0
spin_polarized : F
task : SinglePoint
use_cmplx_ngwfs : T
write_forces : F
xc_functional : PBE

%BLOCK LATTICE_CART
ang
      3.76891462       0.00000000       0.00000000
     -1.88445731       3.26397580       0.00000000
      0.00000000       0.00000000      10.64380631
%ENDBLOCK LATTICE_CART

%BLOCK POSITIONS_ABS
ang
   As     0.000000     0.000000     2.411567
   As     0.000000     0.000000     8.232239
   As     1.884476     1.087981     5.959467
   As     1.884476     1.087981     1.136333
   As    -0.000019     2.175995     9.507474
   As    -0.000019     2.175995     4.684339
%ENDBLOCK POSITIONS_ABS

%BLOCK SPECIES
As As 33 -1 9.0
%ENDBLOCK SPECIES

%BLOCK SPECIES_POT
As As_NCP19_PBE_OTF.usp
%ENDBLOCK SPECIES_POT

!------------------------------------------------------------------------------!
!-------------------------------- END OF INPUT --------------------------------!
!------------------------------------------------------------------------------!