!------------------------------------------------------------------------------!
!--------------------------------- INPUT FILE ---------------------------------!
!------------------------------------------------------------------------------!

cutoff_energy : 1280 eV
do_properties : F
edft : T
edft_maxit : 4
edft_smearing_width : 0.2 eV
eigensolver_abstol : -1
eigensolver_orfac : -1
extend_ngwf : T T T
forces_output_detail : verbose
full_rand_ngwf : T
kpoint_grid_shift : 0 0 1
kpoint_grid_size : 21 21 20
kpoint_method : KP
maxit_ngwf_cg : 1000
occ_mix : 1.0
output_detail : Normal
paw : F
permit_unusual_ngwf_count : T
pseudo_path : .
rand_seed_ngwf_dynamic : F
read_denskern : T
read_tightbox_ngwfs : T
spin : 0
spin_polarized : F
task : SinglePoint
use_cmplx_ngwfs : T
write_forces : F
xc_functional : PBE

%BLOCK LATTICE_CART
ang
      4.86777861       0.00000000       0.00000000
     -2.43388930       4.21561993       0.00000000
      2.43388691      -1.40520526       4.15604165
%ENDBLOCK LATTICE_CART

%BLOCK POSITIONS_ABS
ang
    B     6.434520    -0.904559     2.803874
    B    -1.566744     3.714973     1.352168
    B     4.867753     1.809162     2.803874
    B     0.000024     1.001252     1.352168
    B     3.300985    -0.904559     2.803874
    B     1.566791     3.714973     1.352168
    B     3.430056     0.830070     0.302310
    B     1.437721     1.980345     3.853731
    B     2.433913     2.555439     0.302310
    B     2.433863     0.254976     3.853731
    B     1.437771     0.830070     0.302310
    B     3.430005     1.980345     3.853731
%ENDBLOCK POSITIONS_ABS

%BLOCK SPECIES
B B 5 -1 9.0
%ENDBLOCK SPECIES

%BLOCK SPECIES_POT
B B_NCP19_PBE_OTF.usp
%ENDBLOCK SPECIES_POT

!------------------------------------------------------------------------------!
!-------------------------------- END OF INPUT --------------------------------!
!------------------------------------------------------------------------------!