!------------------------------------------------------------------------------!
!--------------------------------- INPUT FILE ---------------------------------!
!------------------------------------------------------------------------------!

cutoff_energy : 1280 eV
do_properties : F
edft : F
extend_ngwf : T T T
forces_output_detail : verbose
full_rand_ngwf : T
kpoint_grid_shift : 1 1 1
kpoint_grid_size : 14 14 14
kpoint_method : KP
maxit_ngwf_cg : 1000
output_detail : Normal
paw : F
permit_unusual_ngwf_count : T
pseudo_path : .
rand_seed_ngwf_dynamic : F
read_denskern : T
read_tightbox_ngwfs : T
spin : 0
spin_polarized : F
task : SinglePoint
use_cmplx_ngwfs : T
write_forces : F
xc_functional : PBE

%BLOCK LATTICE_CART
ang
      6.27164921       0.00000000       0.00000000
      0.00000000       6.27164921       0.00000000
      0.00000000       0.00000000       6.27164921
%ENDBLOCK LATTICE_CART

%BLOCK POSITIONS_ABS
ang
    N     0.325436     0.325436     0.325436
    N     5.946213     5.946213     5.946213
    N     2.810389     5.946213     3.461260
    N     3.461260     0.325436     2.810389
    N     5.946213     3.461260     2.810389
    N     0.325436     2.810389     3.461260
    N     3.461260     2.810389     5.946213
    N     2.810389     3.461260     0.325436
%ENDBLOCK POSITIONS_ABS

%BLOCK SPECIES
N N 7 -1 9.0
%ENDBLOCK SPECIES

%BLOCK SPECIES_POT
N N_NCP19_PBE_OTF.usp
%ENDBLOCK SPECIES_POT

!------------------------------------------------------------------------------!
!-------------------------------- END OF INPUT --------------------------------!
!------------------------------------------------------------------------------!