!------------------------------------------------------------------------------!
!--------------------------------- INPUT FILE ---------------------------------!
!------------------------------------------------------------------------------!

cutoff_energy : 1280 eV
do_properties : F
edft : F
extend_ngwf : T T T
forces_output_detail : verbose
full_rand_ngwf : T
kpoint_grid_shift : 1 0 1
kpoint_grid_size : 10 19 9
kpoint_method : KP
maxit_ngwf_cg : 1000
output_detail : Normal
paw : F
permit_unusual_ngwf_count : T
pseudo_path : .
rand_seed_ngwf_dynamic : F
read_denskern : T
read_tightbox_ngwfs : T
spin : 0
spin_polarized : F
task : SinglePoint
use_cmplx_ngwfs : T
write_forces : F
xc_functional : PBE

%BLOCK LATTICE_CART
ang
      8.68987834       0.00000000       0.00000000
      0.00000000       4.61415082       0.00000000
      0.00000000       0.00000000      10.31782287
%ENDBLOCK LATTICE_CART

%BLOCK POSITIONS_ABS
ang
    I     0.000000     1.680012     9.064930
    I     0.000000     0.627063     3.906018
    I     0.000000     3.987088     6.411805
    I     0.000000     2.934139     1.252893
    I     4.344939     3.987088     9.064930
    I     4.344939     2.934139     3.906018
    I     4.344939     1.680012     6.411805
    I     4.344939     0.627063     1.252893
%ENDBLOCK POSITIONS_ABS

%BLOCK SPECIES
I I 53 -1 9.0
%ENDBLOCK SPECIES

%BLOCK SPECIES_POT
I I_NCP19_PBE_OTF.usp
%ENDBLOCK SPECIES_POT

!------------------------------------------------------------------------------!
!-------------------------------- END OF INPUT --------------------------------!
!------------------------------------------------------------------------------!