!------------------------------------------------------------------------------!
!--------------------------------- INPUT FILE ---------------------------------!
!------------------------------------------------------------------------------!

cutoff_energy : 1280 eV
do_properties : F
edft : T
edft_maxit : 4
edft_smearing_width : 0.05 eV
eigensolver_abstol : -1
eigensolver_orfac : -1
extend_ngwf : T T T
forces_output_detail : verbose
full_rand_ngwf : F
kpoint_grid_shift : 0 0 1
kpoint_grid_size : 21 21 20
kpoint_method : PW
maxit_ngwf_cg : 1000
occ_mix : 1.0
output_detail : Normal
paw : F
permit_unusual_ngwf_count : T
pseudo_path : .
rand_seed_ngwf_dynamic : F
spin : 0
spin_polarized : F
task : SinglePoint
use_cmplx_ngwfs : T
write_forces : F
xc_functional : PBE

%BLOCK LATTICE_CART
ang
      4.90067000       0.00000000       0.00000000
     -2.45033500       4.24410472       0.00000000
      2.45033259      -1.41470018       4.18412387
%ENDBLOCK LATTICE_CART

%BLOCK POSITIONS_ABS
ang
    B     6.477998    -0.910671     2.822819
    B    -1.577330     3.740075     1.361305
    B     4.900644     1.821387     2.822819
    B     0.000024     1.008018     1.361305
    B     3.323290    -0.910671     2.822819
    B     1.577378     3.740075     1.361305
    B     3.453232     0.835678     0.304353
    B     1.447435     1.993726     3.879771
    B     2.450359     2.572706     0.304353
    B     2.450308     0.256699     3.879771
    B     1.447486     0.835678     0.304353
    B     3.453181     1.993726     3.879771
%ENDBLOCK POSITIONS_ABS

%BLOCK SPECIES
B B 5 -1 2.0
%ENDBLOCK SPECIES

%BLOCK SPECIES_POT
B B_NCP19_PBE_OTF.usp
%ENDBLOCK SPECIES_POT

!------------------------------------------------------------------------------!
!-------------------------------- END OF INPUT --------------------------------!
!------------------------------------------------------------------------------!
num_kpars : 512
maxit_hotelling : 0
use_symmetry = T
use_time_reversal = T
