!------------------------------------------------------------------------------!
!--------------------------------- INPUT FILE ---------------------------------!
!------------------------------------------------------------------------------!

cutoff_energy : 1280 eV
do_properties : F
edft : T
edft_maxit : 4
edft_smearing_width : 0.2 eV
eigensolver_abstol : -1
eigensolver_orfac : -1
extend_ngwf : T T T
forces_output_detail : verbose
full_rand_ngwf : T
kpoint_grid_shift : 0 0 1
kpoint_grid_size : 21 21 20
kpoint_method : KP
maxit_ngwf_cg : 1000
occ_mix : 1.0
output_detail : Normal
paw : F
permit_unusual_ngwf_count : T
pseudo_path : .
rand_seed_ngwf_dynamic : F
read_denskern : T
read_tightbox_ngwfs : T
spin : 0
spin_polarized : F
task : SinglePoint
use_cmplx_ngwfs : T
write_forces : F
xc_functional : PBE

%BLOCK LATTICE_CART
ang
      4.99678597       0.00000000       0.00000000
     -2.49839299       4.32734359       0.00000000
      2.49839053      -1.44244644       4.26618635
%ENDBLOCK LATTICE_CART

%BLOCK POSITIONS_ABS
ang
    B     6.605050    -0.928532     2.878183
    B    -1.608266     3.813429     1.388004
    B     4.996759     1.857109     2.878183
    B     0.000024     1.027788     1.388004
    B     3.388469    -0.928532     2.878183
    B     1.608315     3.813429     1.388004
    B     3.520960     0.852068     0.310322
    B     1.475823     2.032829     3.955864
    B     2.498418     2.623164     0.310322
    B     2.498366     0.261733     3.955864
    B     1.475876     0.852068     0.310322
    B     3.520908     2.032829     3.955864
%ENDBLOCK POSITIONS_ABS

%BLOCK SPECIES
B B 5 -1 9.0
%ENDBLOCK SPECIES

%BLOCK SPECIES_POT
B B_NCP19_PBE_OTF.usp
%ENDBLOCK SPECIES_POT

!------------------------------------------------------------------------------!
!-------------------------------- END OF INPUT --------------------------------!
!------------------------------------------------------------------------------!