!------------------------------------------------------------------------------!
!--------------------------------- INPUT FILE ---------------------------------!
!------------------------------------------------------------------------------!

cutoff_energy : 1280 eV
do_properties : F
edft : F
extend_ngwf : T T T
forces_output_detail : verbose
full_rand_ngwf : T
kpoint_grid_shift : 1 0 1
kpoint_grid_size : 10 19 9
kpoint_method : KP
maxit_ngwf_cg : 1000
output_detail : Normal
paw : F
permit_unusual_ngwf_count : T
pseudo_path : .
rand_seed_ngwf_dynamic : F
spin : 0
spin_polarized : F
task : SinglePoint
use_cmplx_ngwfs : T
write_forces : F
xc_functional : PBE

%BLOCK LATTICE_CART
ang
      8.57701000       0.00000000       0.00000000
      0.00000000       4.55422000       0.00000000
      0.00000000       0.00000000      10.18381000
%ENDBLOCK LATTICE_CART

%BLOCK POSITIONS_ABS
ang
    I     0.000000     1.658192     8.947190
    I     0.000000     0.618918     3.855285
    I     0.000000     3.935302     6.328525
    I     0.000000     2.896028     1.236620
    I     4.288505     3.935302     8.947190
    I     4.288505     2.896028     3.855285
    I     4.288505     1.658192     6.328525
    I     4.288505     0.618918     1.236620
%ENDBLOCK POSITIONS_ABS

%BLOCK SPECIES
I I 53 -1 9.0
%ENDBLOCK SPECIES

%BLOCK SPECIES_POT
I I_NCP19_PBE_OTF.usp
%ENDBLOCK SPECIES_POT

!------------------------------------------------------------------------------!
!-------------------------------- END OF INPUT --------------------------------!
!------------------------------------------------------------------------------!