!------------------------------------------------------------------------------!
!--------------------------------- INPUT FILE ---------------------------------!
!------------------------------------------------------------------------------!

cutoff_energy : 1280 eV
do_properties : F
edft : F
extend_ngwf : T T T
forces_output_detail : verbose
full_rand_ngwf : T
kpoint_grid_shift : 1 1 1
kpoint_grid_size : 26 8 19
kpoint_method : KP
maxit_ngwf_cg : 1000
output_detail : Normal
paw : F
permit_unusual_ngwf_count : T
pseudo_path : .
rand_seed_ngwf_dynamic : F
read_denskern : T
read_tightbox_ngwfs : T
spin : 0
spin_polarized : F
task : SinglePoint
use_cmplx_ngwfs : T
write_forces : F
xc_functional : PBE

%BLOCK LATTICE_CART
ang
      3.36947371       0.00000000       0.00000000
      0.00000000      11.53889713       0.00000000
      0.00000000       0.00000000       4.66296473
%ENDBLOCK LATTICE_CART

%BLOCK POSITIONS_ABS
ang
    P     0.000000     1.079695     0.406564
    P     0.000000    10.459203     4.256401
    P     0.000000     4.689754     2.738046
    P     0.000000     6.849143     1.924918
    P     1.684737     6.849143     0.406564
    P     1.684737     4.689754     4.256401
    P     1.684737    10.459203     2.738046
    P     1.684737     1.079695     1.924918
%ENDBLOCK POSITIONS_ABS

%BLOCK SPECIES
P P 15 -1 9.0
%ENDBLOCK SPECIES

%BLOCK SPECIES_POT
P P_NCP19_PBE_OTF.usp
%ENDBLOCK SPECIES_POT

!------------------------------------------------------------------------------!
!-------------------------------- END OF INPUT --------------------------------!
!------------------------------------------------------------------------------!