!------------------------------------------------------------------------------!
!--------------------------------- INPUT FILE ---------------------------------!
!------------------------------------------------------------------------------!

cutoff_energy : 1280 eV
do_properties : F
edft : F
extend_ngwf : T T T
forces_output_detail : verbose
full_rand_ngwf : T
kpoint_grid_shift : 0 1 0
kpoint_grid_size : 11 20 10
kpoint_method : KP
maxit_ngwf_cg : 1000
output_detail : Normal
paw : F
permit_unusual_ngwf_count : T
pseudo_path : .
rand_seed_ngwf_dynamic : F
read_denskern : T
read_tightbox_ngwfs : T
spin : 0
spin_polarized : F
task : SinglePoint
use_cmplx_ngwfs : T
write_forces : F
xc_functional : PBE

%BLOCK LATTICE_CART
ang
      8.06062225       0.00000000       0.00000000
      0.00000000       4.14101415       0.00000000
      0.00000000       0.00000000       8.84882662
%ENDBLOCK LATTICE_CART

%BLOCK POSITIONS_ABS
ang
   Br     0.000000     1.555945     7.812098
   Br     0.000000     0.514562     3.387685
   Br     0.000000     3.626452     5.461142
   Br     0.000000     2.585069     1.036729
   Br     4.030311     3.626452     7.812098
   Br     4.030311     2.585069     3.387685
   Br     4.030311     1.555945     5.461142
   Br     4.030311     0.514562     1.036729
%ENDBLOCK POSITIONS_ABS

%BLOCK SPECIES
Br Br 35 -1 9.0
%ENDBLOCK SPECIES

%BLOCK SPECIES_POT
Br Br_NCP19_PBE_OTF.usp
%ENDBLOCK SPECIES_POT

!------------------------------------------------------------------------------!
!-------------------------------- END OF INPUT --------------------------------!
!------------------------------------------------------------------------------!