!------------------------------------------------------------------------------!
!--------------------------------- INPUT FILE ---------------------------------!
!------------------------------------------------------------------------------!

cutoff_energy : 1280 eV
do_properties : F
edft : F
extend_ngwf : T T T
forces_output_detail : verbose
full_rand_ngwf : T
kpoint_grid_shift : 0 1 1
kpoint_grid_size : 11 20 10
kpoint_method : KP
maxit_ngwf_cg : 1000
output_detail : Normal
paw : F
permit_unusual_ngwf_count : T
pseudo_path : .
rand_seed_ngwf_dynamic : F
read_denskern : T
read_tightbox_ngwfs : T
spin : 0
spin_polarized : F
task : SinglePoint
use_cmplx_ngwfs : T
write_forces : F
xc_functional : PBE

%BLOCK LATTICE_CART
ang
      7.72654205       0.00000000       0.00000000
      0.00000000       4.32021845       0.00000000
      0.00000000       0.00000000       8.96695066
%ENDBLOCK LATTICE_CART

%BLOCK POSITIONS_ABS
ang
   Cl     0.000000     1.766192     8.056626
   Cl     0.000000     0.393918     3.573150
   Cl     0.000000     3.926301     5.393800
   Cl     0.000000     2.554027     0.910325
   Cl     3.863271     3.926301     8.056626
   Cl     3.863271     2.554027     3.573150
   Cl     3.863271     1.766192     5.393800
   Cl     3.863271     0.393918     0.910325
%ENDBLOCK POSITIONS_ABS

%BLOCK SPECIES
Cl Cl 17 -1 9.0
%ENDBLOCK SPECIES

%BLOCK SPECIES_POT
Cl Cl_NCP19_PBE_OTF.usp
%ENDBLOCK SPECIES_POT

!------------------------------------------------------------------------------!
!-------------------------------- END OF INPUT --------------------------------!
!------------------------------------------------------------------------------!